50
368
5
17
18
84
96
70
0 2
0 4
0 5
0 8
0 9
0 14
0 15
0 18
0 22
0 23
0 26
0 27
0 29
0 32
0 35
0 39
0 40
0 45
1 3
1 5
1 6
1 7
1 9
1 11
1 13
1 14
1 17
1 21
1 22
1 25
1 35
1 36
1 41
1 45
1 47
2 3
2 4
2 10
2 11
2 13
2 22
2 27
2 36
2 37
2 48
2 49
3 5
3 8
3 9
3 11
3 19
3 24
3 25
3 30
3 33
3 34
3 37
3 38
3 44
3 46
3 49
4 5
4 9
4 10
4 12
4 14
4 15
4 17
4 31
4 33
4 36
4 38
4 39
4 45
4 46
4 47
4 49
5 7
5 9
5 10
5 14
5 19
5 24
5 25
5 30
5 34
5 37
5 41
5 44
5 48
5 49
6 12
6 14
6 15
6 23
6 24
6 26
6 29
6 33
6 35
6 39
6 45
6 49
7 10
7 11
7 13
7 14
7 15
7 16
7 21
7 23
7 27
7 34
7 39
7 47
7 48
8 11
8 15
8 16
8 18
8 21
8 24
8 25
8 28
8 29
8 36
8 38
8 45
8 46
8 47
9 10
9 12
9 13
9 21
9 25
9 26
9 27
9 34
9 36
10 14
10 17
10 22
10 24
10 29
10 30
10 31
10 33
10 40
10 42
10 45
11 15
11 16
11 18
11 25
11 30
11 31
11 34
11 35
11 37
11 40
11 49
12 15
12 18
12 25
12 32
12 35
12 38
13 15
13 17
13 21
13 22
13 25
13 26
13 30
13 32
13 34
13 38
13 43
14 19
14 20
14 22
14 24
14 26
14 29
14 30
14 31
14 33
14 40
14 45
14 47
14 48
15 20
15 23
15 26
15 27
15 32
15 34
15 41
15 43
16 19
16 20
16 21
16 22
16 23
16 25
16 28
16 32
16 47
16 49
17 18
17 20
17 21
17 22
17 27
17 28
17 31
17 37
17 39
17 42
17 43
17 44
17 49
18 23
18 25
18 30
18 36
18 37
18 40
18 42
18 43
18 44
18 47
18 48
19 21
19 31
19 33
19 34
19 35
19 38
19 42
19 49
20 21
20 22
20 24
20 25
20 30
20 38
20 40
20 43
20 47
20 48
21 22
21 24
21 27
21 35
21 44
21 45
21 46
21 47
21 48
22 30
22 31
22 32
22 35
22 36
22 38
22 41
22 45
22 48
23 24
23 28
23 30
23 31
23 33
23 34
23 37
23 39
23 45
24 27
24 37
24 39
24 42
24 44
24 46
24 48
24 49
25 27
25 28
25 31
25 32
25 34
25 39
25 44
25 48
26 32
26 40
26 44
26 47
26 48
27 29
27 32
27 37
27 38
27 45
27 48
28 30
28 33
28 35
28 39
28 41
28 43
28 46
28 48
28 49
29 33
29 37
29 39
29 41
29 42
29 47
29 49
30 31
30 33
30 42
30 49
31 35
31 38
31 44
32 34
32 36
32 37
32 42
32 45
32 46
32 48
33 34
33 38
33 46
33 47
33 48
34 37
34 38
34 39
34 48
35 38
35 46
35 47
36 37
36 39
36 45
37 43
37 47
37 48
37 49
38 39
38 42
38 44
38 45
39 43
39 45
40 46
40 48
42 46
42 49
43 44
43 49
44 46
45 49
14 2 11 44 36 39 5 47 46 0 34 48
30 15 26 17 41 7 10 43 20 4 13 31
33 37 40 18 3 19 8 38 35 1 22 23
49 28 16 24 25 9 42 21 6 12 45 29
27 32
